GLPSOL--GLPK LP/MIP Solver 5.0
Parameter(s) specified in the command line:
 --lp ../modeles/15_164.lp --log 15_164.log
Reading problem data from '../modeles/15_164.lp'...
2521 rows, 4950 columns, 17265 non-zeros
2460 integer variables, all of which are binary
7492 lines were read
GLPK Integer Optimizer 5.0
2521 rows, 4950 columns, 17265 non-zeros
2460 integer variables, all of which are binary
Preprocessing...
2430 constraint coefficient(s) were reduced
2521 rows, 4935 columns, 17250 non-zeros
2460 integer variables, all of which are binary
Scaling...
 A: min|aij| =  5.949e-04  max|aij| =  4.000e+00  ratio =  6.724e+03
GM: min|aij| =  1.104e-01  max|aij| =  9.055e+00  ratio =  8.200e+01
EQ: min|aij| =  1.220e-02  max|aij| =  1.000e+00  ratio =  8.200e+01
2N: min|aij| =  9.518e-03  max|aij| =  1.749e+00  ratio =  1.838e+02
Constructing initial basis...
Size of triangular part is 2521
Solving LP relaxation...
GLPK Simplex Optimizer 5.0
2521 rows, 4935 columns, 17250 non-zeros
      0: obj =   3.000000000e+01 inf =   7.450e+01 (31)
    194: obj =  -5.080711151e-02 inf =   0.000e+00 (0)
*   726: obj =  -3.868757259e+00 inf =   3.964e-14 (0) 1
OPTIMAL LP SOLUTION FOUND
Integer optimization begins...
Long-step dual simplex will be used
+   726: mip =     not found yet >=              -inf        (1; 0)
+   738: >>>>>  -3.868757259e+00 >=  -3.868757259e+00 < 0.1% (8; 0)
+   738: mip =  -3.868757259e+00 >=     tree is empty   0.0% (0; 15)
INTEGER OPTIMAL SOLUTION FOUND
Time used:   0.1 secs
Memory used: 7.1 Mb (7454507 bytes)
